X	Y	Demanda
287	221	40
355	97	133
377	31	39
156	452	63
461	100	127
134	533	92
371	134	77
205	552	78
278	317	67
201	505	56
365	506	131
196	561	72
470	42	102
192	545	131
23	79	100
257	474	117
233	482	72
223	509	45
189	373	47
463	286	111


